NAME nominalQP
ROWS
 N  OBJ
 L  quad_0  
 L  quad_1  
COLUMNS
    C0        OBJ       -0.134
    C0        quad_0    0.224
    C1        OBJ       -1.736
    C1        quad_1    -0.059
    C2        OBJ       0.204
    C3        OBJ       -0.986
    C3        quad_0    0.013
    C3        quad_1    1.986
    C4        OBJ       -0.129
    C4        quad_0    0.544
    C4        quad_1    -0.162
    C5        OBJ       -0.473
    C5        quad_0    0.204
    C6        OBJ       1.206
    C6        quad_0    1.144
    C7        OBJ       0.329
    C7        quad_0    -0.213
    C8        OBJ       -0.819
    C9        OBJ       0.439
    C9        quad_1    -0.815
RHS
    RHS1      OBJ       0.839
    RHS1      quad_0    1.681
    RHS1      quad_1    2.682
BOUNDS
QUADOBJ
    C0        C0        2
    C1        C1        2
    C2        C2        2
    C3        C3        2
    C4        C4        2
    C5        C5        2
    C6        C6        2
    C7        C7        2
    C8        C8        2
    C9        C9        2
QCMATRIX   quad_0  
    C1        C1        0.38474
    C1        C2        -8.7974000000000008e-001
    C2        C1        -8.7974000000000008e-001
    C1        C8        -8.8576400000000011e-001
    C8        C1        -8.8576400000000011e-001
    C1        C9        1.0956160000000001e+000
    C9        C1        1.0956160000000001e+000
    C2        C2        2.8507399999999996e+000
    C2        C8        2.1466040000000000e+000
    C8        C2        2.1466040000000000e+000
    C2        C9        -1.6869760000000003e+000
    C9        C2        -1.6869760000000003e+000
    C8        C8        2.0567560000000000e+000
    C8        C9        -2.40416
    C9        C8        -2.40416
    C9        C9        3.9178240000000000e+000
QCMATRIX   quad_1  
    C0        C0        2.1617109999999995e+000
    C0        C2        -2.9578900000000008e-001
    C2        C0        -2.9578900000000008e-001
    C0        C5        -1.6686420000000000e+000
    C5        C0        -1.6686420000000000e+000
    C0        C6        1.5843229999999999e+000
    C6        C0        1.5843229999999999e+000
    C0        C7        -2.1657600000000005e-001
    C7        C0        -2.1657600000000005e-001
    C0        C8        2.1160890000000001e+000
    C8        C0        2.1160890000000001e+000
    C2        C2        3.7521060000000004e+000
    C2        C5        -1.0025840000000001e+000
    C5        C2        -1.0025840000000001e+000
    C2        C6        3.6648400000000003e-001
    C6        C2        3.6648400000000003e-001
    C2        C7        0.190528
    C7        C2        0.190528
    C2        C8        7.1650499999999984e-001
    C8        C2        7.1650499999999984e-001
    C5        C5        2.2216339999999999e+000
    C5        C6        -0.865622
    C6        C5        -0.865622
    C5        C7        -0.166659
    C7        C5        -0.166659
    C5        C8        -1.5444750000000003e+000
    C8        C5        -1.5444750000000003e+000
    C6        C6        2.70695
    C6        C7        -2.8128800000000004e-001
    C7        C6        -2.8128800000000004e-001
    C6        C8        3.3062309999999999e+000
    C8        C6        3.3062309999999999e+000
    C7        C7        0.202779
    C7        C8        -0.201552
    C8        C7        -0.201552
    C8        C8        4.2035580000000001e+000
ENDATA
